events = {dummyEv,evnt1,evnt2,evnt3,evnt4,evnt5};
InitialM =[|
    false,false,false|
    false,true,false|
    false,true,false|
    false,true,false|
    false,true,false|
    false,true,false
|];
Act ={dummyAct,FillOutExpenseReport,Approve,Reject,PayOut,WithdrawExpenseReport};
numConditions =5;
conditions =  [|
    evnt1,evnt4|
    evnt1,evnt2|
    evnt1,evnt3|
    evnt1,evnt5|
    evnt2,evnt4
|];
numResponses =3;
responses =[|
    evnt1,evnt4|
    evnt1,evnt2|
    evnt3,evnt2       
|];
numInclusions =1;
inclusions =[|
    evnt1,evnt1
|];
numExclusions = 10;
exclusions =[|
    evnt4,evnt1|
    evnt4,evnt2|
    evnt4,evnt3|
    evnt4,evnt4|
    evnt4,evnt5|
    evnt5,evnt1|
    evnt5,evnt2|
    evnt5,evnt3|
    evnt5,evnt4|
    evnt5,evnt5
|];
l = [dummyAct,FillOutExpenseReport,Approve,Reject,PayOut,WithdrawExpenseReport];
feats={costs,time,steps};
agg = [sumVal,sumVal,lenght];
cost = [|
     0,0,0|
     10,1500,0|
     25,7200,0|
     30,7200,0|
     15,1800,0|
     700,1200,0
    |];
%weights=[2,3,1];
%K=5;